NAME          ClpDefau
ROWS
 N  OBJROW
 L  R_268_0
 L  R_268_1
 L  R_268_2
 L  R_268_3
 L  R_268_4
 L  R_268_5
 L  R_268_6
 L  R_268_7
 L  R_268_8
 L  R_268_9
 L  R_268_10
 L  R_268_11
 L  R_268_12
 L  R_268_13
 L  R_268_14
 L  R_268_15
 L  R_268_16
 L  R_268_17
 L  R_268_18
 L  R_268_19
 L  R_268_20
 L  R_268_21
 L  R_268_22
 L  R_268_23
 L  R_268_24
 L  R_268_25
 L  R_268_26
 L  R_268_27
 L  R_268_28
 L  R_268_29
 L  R_268_30
 L  R_268_31
COLUMNS
    x_0       OBJROW     -8.           R_268_2   3.          
    x_0       R_268_4   6.             R_268_5   9.          
    x_0       R_268_9   8.             R_268_18  7.          
    x_1       OBJROW     -12.          R_268_5   10.         
    x_1       R_268_20  6.             R_268_23  2.          
    x_1       R_268_24  1.             R_268_28  9.          
    x_1       R_268_29  5.          
    x_2       OBJROW     -11.          R_268_3   6.          
    x_2       R_268_6   2.             R_268_8   1.          
    x_2       R_268_10  3.             R_268_13  10.         
    x_2       R_268_14  4.             R_268_15  1.          
    x_2       R_268_16  10.            R_268_24  5.          
    x_3       OBJROW     -47.          R_268_0   8.          
    x_3       R_268_16  3.             R_268_17  4.          
    x_4       OBJROW     -22.          R_268_0   1.          
    x_4       R_268_2   9.             R_268_5   3.          
    x_4       R_268_7   1.             R_268_19  7.          
    x_4       R_268_25  2.             R_268_30  7.          
    x_4       R_268_31  5.          
    x_5       OBJROW     -95.          R_268_0   1.          
    x_5       R_268_2   8.             R_268_6   1.          
    x_5       R_268_9   8.             R_268_10  10.         
    x_5       R_268_13  6.             R_268_15  2.          
    x_5       R_268_16  10.            R_268_21  8.          
    x_6       OBJROW     -86.          R_268_12  6.          
    x_6       R_268_13  9.             R_268_14  7.          
    x_6       R_268_20  5.             R_268_25  5.          
    x_6       R_268_26  9.          
    x_7       OBJROW     -40.          R_268_1   3.          
    x_7       R_268_8   8.             R_268_14  5.          
    x_8       OBJROW     -33.          R_268_0   8.          
    x_8       R_268_4   2.             R_268_5   4.          
    x_8       R_268_10  9.             R_268_12  10.         
    x_8       R_268_16  7.             R_268_19  4.          
    x_8       R_268_26  10.         
    x_9       OBJROW     -78.          R_268_0   2.          
    x_9       R_268_10  8.             R_268_14  9.          
    x_9       R_268_16  1.             R_268_26  6.          
    x_10      OBJROW     -28.          R_268_1   4.          
    x_10      R_268_13  7.             R_268_22  8.          
    x_10      R_268_26  4.             R_268_30  3.          
    x_11      OBJROW     -78.          R_268_22  6.          
    x_11      R_268_24  3.             R_268_28  3.          
    x_12      OBJROW     -5.           R_268_8   6.          
    x_12      R_268_14  6.             R_268_23  3.          
    x_12      R_268_24  2.             R_268_27  9.          
    x_12      R_268_29  10.         
    x_13      OBJROW     -75.          R_268_0   8.          
    x_13      R_268_5   9.             R_268_13  2.          
    x_13      R_268_16  9.             R_268_18  5.          
    x_13      R_268_24  7.             R_268_26  8.          
    x_13      R_268_27  8.             R_268_31  9.          
    x_14      OBJROW     -88.          R_268_1   9.          
    x_14      R_268_7   8.             R_268_8   9.          
    x_14      R_268_9   2.             R_268_23  4.          
    x_14      R_268_24  4.          
    x_15      OBJROW     -21.          R_268_8   9.          
    x_15      R_268_12  3.             R_268_17  4.          
    x_15      R_268_20  4.             R_268_22  9.          
    x_15      R_268_25  8.             R_268_28  6.          
    x_16      OBJROW     -56.          R_268_6   5.          
    x_16      R_268_8   7.             R_268_23  8.          
    x_16      R_268_28  6.          
    x_17      OBJROW     -82.          R_268_8   1.          
    x_17      R_268_9   6.             R_268_10  9.          
    x_17      R_268_17  10.            R_268_20  7.          
    x_17      R_268_25  8.             R_268_28  5.          
    x_18      OBJROW     -51.          R_268_13  8.          
    x_18      R_268_21  9.             R_268_23  7.          
    x_18      R_268_26  9.             R_268_30  8.          
    x_19      OBJROW     -93.          R_268_1   8.          
    x_19      R_268_2   3.             R_268_5   3.          
    x_19      R_268_8   9.             R_268_11  3.          
    x_19      R_268_12  9.             R_268_20  6.          
    x_19      R_268_28  6.          
    x_20      OBJROW     -66.          R_268_2   2.          
    x_20      R_268_8   10.            R_268_9   10.         
    x_20      R_268_13  1.             R_268_15  4.          
    x_20      R_268_19  6.             R_268_20  10.         
    x_20      R_268_24  7.             R_268_25  5.          
    x_21      OBJROW     -48.          R_268_1   3.          
    x_21      R_268_12  10.            R_268_15  5.          
    x_21      R_268_30  5.          
    x_22      OBJROW     -70.          R_268_0   9.          
    x_22      R_268_11  5.             R_268_20  10.         
    x_22      R_268_23  7.             R_268_30  4.          
    x_23      OBJROW     -57.          R_268_15  8.          
    x_23      R_268_16  1.             R_268_21  6.          
    x_23      R_268_31  1.          
    x_24      OBJROW     -65.          R_268_0   7.          
    x_24      R_268_9   5.             R_268_15  4.          
    x_24      R_268_20  4.             R_268_30  8.          
    x_25      OBJROW     -35.          R_268_4   8.          
    x_25      R_268_7   4.             R_268_16  6.          
    x_25      R_268_21  8.             R_268_22  8.          
    x_26      OBJROW     -5.           R_268_3   3.          
    x_26      R_268_4   5.             R_268_6   1.          
    x_26      R_268_9   4.             R_268_14  4.          
    x_26      R_268_15  4.             R_268_16  2.          
    x_26      R_268_19  10.            R_268_20  3.          
    x_26      R_268_23  9.             R_268_27  2.          
    x_26      R_268_30  8.          
    x_27      OBJROW     -4.           R_268_3   3.          
    x_27      R_268_5   2.             R_268_9   5.          
    x_27      R_268_13  4.             R_268_18  3.          
    x_27      R_268_22  6.             R_268_28  1.          
    x_27      R_268_29  7.             R_268_30  4.          
    x_28      OBJROW     -47.          R_268_2   9.          
    x_28      R_268_5   10.            R_268_7   6.          
    x_28      R_268_8   4.             R_268_12  4.          
    x_28      R_268_13  2.             R_268_21  3.          
    x_28      R_268_24  3.             R_268_29  1.          
    x_29      OBJROW     -60.          R_268_0   1.          
    x_29      R_268_1   7.             R_268_4   5.          
    x_30      OBJROW     -41.          R_268_3   4.          
    x_30      R_268_10  2.             R_268_14  6.          
    x_30      R_268_18  9.             R_268_19  7.          
    x_31      OBJROW     -49.          R_268_1   10.         
    x_31      R_268_5   8.             R_268_6   6.          
    x_31      R_268_10  6.             R_268_11  1.          
    x_31      R_268_19  4.             R_268_20  8.          
    x_31      R_268_21  5.             R_268_22  3.          
    x_31      R_268_24  2.             R_268_27  6.          
RHS
    RHS       R_268_0   38.            R_268_1   42.         
    RHS       R_268_2   41.            R_268_3   41.         
    RHS       R_268_4   37.            R_268_5   33.         
    RHS       R_268_6   32.            R_268_7   33.         
    RHS       R_268_8   35.            R_268_9   32.         
    RHS       R_268_10  40.            R_268_11  40.         
    RHS       R_268_12  32.            R_268_13  34.         
    RHS       R_268_14  32.            R_268_15  36.         
    RHS       R_268_16  36.            R_268_17  33.         
    RHS       R_268_18  32.            R_268_19  42.         
    RHS       R_268_20  41.            R_268_21  32.         
    RHS       R_268_22  37.            R_268_23  36.         
    RHS       R_268_24  33.            R_268_25  38.         
    RHS       R_268_26  42.            R_268_27  42.         
    RHS       R_268_28  42.            R_268_29  42.         
    RHS       R_268_30  34.            R_268_31  38.         
BOUNDS
 UI BOUND     x_0       100.        
 UI BOUND     x_1       100.        
 UI BOUND     x_2       100.        
 UI BOUND     x_3       100.        
 UI BOUND     x_4       100.        
 UI BOUND     x_5       100.        
 UI BOUND     x_6       100.        
 UI BOUND     x_7       100.        
 UI BOUND     x_8       100.        
 UI BOUND     x_9       100.        
 UI BOUND     x_10      100.        
 UI BOUND     x_11      100.        
 UI BOUND     x_12      100.        
 UI BOUND     x_13      100.        
 UI BOUND     x_14      100.        
 UI BOUND     x_15      100.        
 UI BOUND     x_16      100.        
 UI BOUND     x_17      100.        
 UI BOUND     x_18      100.        
 UI BOUND     x_19      100.        
 UI BOUND     x_20      100.        
 UI BOUND     x_21      100.        
 UI BOUND     x_22      100.        
 UI BOUND     x_23      100.        
 UI BOUND     x_24      100.        
 UI BOUND     x_25      100.        
 UI BOUND     x_26      100.        
 UI BOUND     x_27      100.        
 UI BOUND     x_28      100.        
 UI BOUND     x_29      100.        
 UI BOUND     x_30      100.        
 UI BOUND     x_31      100.        
ENDATA
